63 5000 25383 
14 1
18 1
20 1
21 1
25 1
38 1
44 1
50 1
74 1
80 1
85 1
88 1
93 1
94 1
116 1
144 1
147 1
150 1
157 1
158 1
160 1
161 1
163 1
188 1
208 1
209 1
213 1
215 1
216 1
217 1
223 1
228 1
242 1
247 1
251 1
269 1
270 1
273 1
286 1
294 1
297 1
305 1
306 1
310 1
324 1
328 1
340 1
349 1
360 1
375 1
398 1
411 1
417 1
424 1
430 1
444 1
446 1
457 1
460 1
472 1
473 1
475 1
480 1
